c A SAT instance generated from a 3-CNF formula that had 25 clauses and 25 variables
p cnf 25 25
-10 20 16 0
-15 9 -20 0
19 5 -17 0
13 -3 7 0
21 -9 2 0
25 16 -6 0
25 -16 -17 0
-18 -16 3 0
-23 -20 -11 0
-24 12 -8 0
12 -1 24 0
-4 -9 -22 0
17 -12 -6 0
13 16 25 0
-20 15 -5 0
-10 -16 25 0
-6 -25 -21 0
6 22 -25 0
1 20 -18 0
23 -20 9 0
22 -1 11 0
-7 -15 -16 0
-8 24 16 0
22 -21 -20 0
-7 3 4 0
%
0

23 21 59 72 91 17 39 16 7 1 62 95 85 79 16 76 74 76 14 81 86 66 75 19 51
